NAME : in_house_7_9
TYPE : TSP
DIMENSION : 7
EDGE_WEIGHT_TYPE : EXPLICIT
EDGE_WEIGHT_FORMAT : UPPER_ROW
COMMENT : INVERSION_SHIFT=5
EDGE_WEIGHT_SECTION
26
7
36
32
2
49
35
40
18
27
38
25
30
19
47
2
47
11
40
7
35
